unsat
(define-fun skel ((n386 Bool) (n389 Bool) (n393 Bool) (n388 Bool) (i_4 Bool)) Bool (and n393 (and i_4 (and (or n386 n389) (not (or n388 (and n386 n389)))))))
277.45user 0.31system 4:37.77elapsed 99%CPU (0avgtext+0avgdata 450600maxresident)k
0inputs+8outputs (0major+114789minor)pagefaults 0swaps
